DATASET = "thpack2";
INSTANCE = "080";

WIDTH = 233;
HEIGHT = 220;
LENGTH = 587;

NO_OF_SHAPES = 5;
size = [|
  78,59,54 |
  120,52,20 |
  100,67,54 |
  91,59,37 |
  112,57,56 |
|];

verticality = [|
  1,1,1 |
  0,0,1 |
  1,1,1 |
  0,1,1 |
  0,1,1 |
|];

box_count = [
  21,
  25,
  25,
  22,
  23,
];
